! Touchstone file from project Antenna
! Exported from HFSS 15.0.3
! Variables:
!  D_patch = 9.16mm
!  L = 9.16mm
!  L_feed = 2mm
!  L_sub = 0.01832
!  T = 0.018mm
!  W = 9.16mm
!  W_50 = 1.57138mm
!  W_sub = 0.01832
!  er = 2.2
!  er_eff = 2.07
!  f0 = 10.5GHz
!  h = 20mil
!  lambda = 0.0285714285714286meter
!  pakh = 1.03mm
!  pakh2 = 0mm
!  r_g = 0.55mm
!  r_pad = 1.1mm
!  r_via = 0.15mm
# GHZ S MA R 50.000000
! Modal data exported
! Port[1] = 1:1
9.5              0.894587523928759 -145.227948777533 
! Gamma  !      0.101342411658822 271.285509408352 
! Port Impedance  50               0                

9.51             0.892766135547616 -145.993566765003 
! Gamma  !      0.101451325806134 271.573601027864 
! Port Impedance  50               0                

9.52             0.890899615615129 -146.766348799309 
! Gamma  !      0.101560246981987 271.861699786642 
! Port Impedance  50               0                

9.53             0.888986607675599 -147.546470872243 
! Gamma  !      0.101669175183927 272.149805687696 
! Port Impedance  50               0                

9.54             0.887025706111026 -148.33411456037 
! Gamma  !      0.101778110409472 272.437918734026 
! Port Impedance  50               0                

9.55             0.885015454225383 -149.129467240045 
! Gamma  !      0.101887052656108 272.72603892862  
! Port Impedance  50               0                

9.56             0.882954342251084 -149.932722311991 
! Gamma  !      0.101996001921294 273.014166274456 
! Port Impedance  50               0                

9.57             0.880840805274686 -150.744079435898 
! Gamma  !      0.102104958202458 273.302300774498 
! Port Impedance  50               0                

9.58             0.878673221078757 -151.563744775517 
! Gamma  !      0.102213921496998 273.590442431702 
! Port Impedance  50               0                

9.59             0.8764499078968  -152.391931254773 
! Gamma  !      0.10232289180228 273.87859124901  
! Port Impedance  50               0                

9.6              0.874169122078018 -153.228858825426 
! Gamma  !      0.102431869115641 274.166747229355 
! Port Impedance  50               0                

9.61             0.871829055658662 -154.074754746833 
! Gamma  !      0.102540853434386 274.454910375657 
! Port Impedance  50               0                

9.62             0.869427833836645 -154.929853878389 
! Gamma  !      0.102649844755788 274.743080690826 
! Port Impedance  50               0                

9.63             0.866963512346012 -155.794398985268 
! Gamma  !      0.102758843077089 275.031258177759 
! Port Impedance  50               0                

9.64             0.864434074727873 -156.668641058079 
! Gamma  !      0.102867848395499 275.319442839344 
! Port Impedance  50               0                

9.65             0.861837429494311 -157.552839647094 
! Gamma  !      0.102976860708195 275.607634678457 
! Port Impedance  50               0                

9.66             0.859171407181788 -158.44726321173 
! Gamma  !      0.103085880012324 275.895833697962 
! Port Impedance  50               0                

9.67             0.856433757290556 -159.352189485985 
! Gamma  !      0.103194906304998 276.184039900711 
! Port Impedance  50               0                

9.68             0.853622145106564 -160.267905860537 
! Gamma  !      0.103303939583298 276.472253289548 
! Port Impedance  50               0                

9.69             0.850734148402427 -161.194709782252 
! Gamma  !      0.10341297984427 276.760473867302 
! Port Impedance  50               0                

9.7              0.847767254014012 -162.132909171854 
! Gamma  !      0.10352202708493 277.048701636794 
! Port Impedance  50               0                

9.71             0.844718854289328 -163.082822860502 
! Gamma  !      0.103631081302259 277.336936600832 
! Port Impedance  50               0                

9.72             0.841586243406481 -164.044781046052 
! Gamma  !      0.103740142493204 277.625178762213 
! Port Impedance  50               0                

9.73             0.838366613557612 -165.019125769756 
! Gamma  !      0.103849210654681 277.913428123723 
! Port Impedance  50               0                

9.74             0.835057050995942 -166.006211414135 
! Gamma  !      0.10395828578357 278.201684688137 
! Port Impedance  50               0                

9.75             0.831654531943261 -167.006405222757 
! Gamma  !      0.104067367876718 278.489948458218 
! Port Impedance  50               0                

9.76             0.828155918355553 -168.020087842579 
! Gamma  !      0.10417645693094 278.778219436719 
! Port Impedance  50               0                

9.77             0.824557953544764 -169.047653889477 
! Gamma  !      0.104285552943014 279.066497626382 
! Port Impedance  50               0                

9.78             0.820857257655274 -170.089512537488 
! Gamma  !      0.104394655909688 279.354783029936 
! Port Impedance  50               0                

9.79             0.817050322994128 -171.146088132175 
! Gamma  !      0.104503765827672 279.6430756501   
! Port Impedance  50               0                

9.8              0.813133509214844 -172.217820828383 
! Gamma  !      0.104612882693645 279.931375489583 
! Port Impedance  50               0                

9.81             0.809103038355437 -173.305167252449 
! Gamma  !      0.104722006504252 280.21968255108  
! Port Impedance  50               0                

9.82             0.804954989732376 -174.408601188696 
! Gamma  !      0.1048311372561  280.507996837278 
! Port Impedance  50               0                

9.83             0.800685294693377 -175.528614289703 
! Gamma  !      0.104940274945768 280.79631835085  
! Port Impedance  50               0                

9.84             0.796289731233598 -176.665716809472 
! Gamma  !      0.105049419569794 281.084647094461 
! Port Impedance  50               0                

9.85             0.791763918481512 -177.820438358101 
! Gamma  !      0.105158571124688 281.372983070762 
! Port Impedance  50               0                

9.86             0.787103311063141 -178.993328675962 
! Gamma  !      0.105267729606922 281.661326282394 
! Port Impedance  50               0                

9.87             0.782303193355987 179.815041575377 
! Gamma  !      0.105376895012936 281.949676731988 
! Port Impedance  50               0                

9.88             0.777358673647457 178.604080009195 
! Gamma  !      0.105486067339133 282.238034422162 
! Port Impedance  50               0                

9.89             0.772264678216615 177.373171701498 
! Gamma  !      0.105595246581885 282.526399355523 
! Port Impedance  50               0                

9.9              0.767015945363188 176.121678377033 
! Gamma  !      0.105704432737528 282.814771534669 
! Port Impedance  50               0                

9.91             0.76160701941391 174.84893760149  
! Gamma  !      0.105813625802364 283.103150962185 
! Port Impedance  50               0                

9.92             0.756032244743898 173.554261990112 
! Gamma  !      0.105922825772661 283.391537640646 
! Port Impedance  50               0                

9.93             0.750285759860074 172.236938445569 
! Gamma  !      0.106032032644655 283.679931572615 
! Port Impedance  50               0                

9.94             0.74436149160519 170.896227441179 
! Gamma  !      0.106141246414543 283.968332760644 
! Port Impedance  50               0                

9.95             0.738253149555227 169.531362369542 
! Gamma  !      0.106250467078494 284.256741207275 
! Port Impedance  50               0                

9.96             0.731954220700533 168.141548981491 
! Gamma  !      0.106359694632639 284.545156915037 
! Port Impedance  50               0                

9.97             0.725457964522821 166.725964946204 
! Gamma  !      0.106468929073075 284.833579886451 
! Port Impedance  50               0                

9.98             0.718757408607143 165.283759570577 
! Gamma  !      0.106578170395869 285.122010124024 
! Port Impedance  50               0                

9.99             0.711845344961353 163.81405372485  
! Gamma  !      0.106687418597049 285.410447630254 
! Port Impedance  50               0                

10               0.7047143272572  162.315940032346 
! Gamma  !      0.106796673672614 285.698892407626 
! Port Impedance  50               0                

10.01            0.69735666925859 160.788483394479 
! Gamma  !      0.106905935618526 285.987344458616 
! Port Impedance  50               0                

10.02            0.689764444766646 159.230721938472 
! Gamma  !      0.107015204430716 286.275803785687 
! Port Impedance  50               0                

10.03            0.681929489490644 157.641668495131 
! Gamma  !      0.107124480105079 286.564270391293 
! Port Impedance  50               0                

10.04            0.673843405352476 156.020312738415 
! Gamma  !      0.107233762637479 286.852744277876 
! Port Impedance  50               0                

10.05            0.665497567854725 154.365624148344 
! Gamma  !      0.107343052023744 287.141225447867 
! Port Impedance  50               0                

10.06            0.65688313729401 152.676555995323 
! Gamma  !      0.107452348259671 287.429713903686 
! Port Impedance  50               0                

10.07            0.647991074788942 150.952050588565 
! Gamma  !      0.107561651341023 287.718209647741 
! Port Impedance  50               0                

10.08            0.638812164324083 149.191046085909 
! Gamma  !      0.10767096126353 288.006712682432 
! Port Impedance  50               0                

10.09            0.629337042297164 147.392485229012 
! Gamma  !      0.107780278022888 288.295223010146 
! Port Impedance  50               0                

10.1             0.619556236408707 145.555326449272 
! Gamma  !      0.107889601614763 288.583740633257 
! Port Impedance  50               0                

10.11            0.609460216164445 143.678557889052 
! Gamma  !      0.107998932034784 288.872265554133 
! Port Impedance  50               0                

10.12            0.599039457787512 141.761215003392 
! Gamma  !      0.10810826927855 289.160797775126 
! Port Impedance  50               0                

10.13            0.588284526977411 139.802402553781 
! Gamma  !      0.108217613341627 289.449337298581 
! Port Impedance  50               0                

10.14            0.577186183725938 137.801321982446 
! Gamma  !      0.108326964219548 289.73788412683  
! Port Impedance  50               0                

10.15            0.565735514327724 135.757305368512 
! Gamma  !      0.108436321907813 290.026438262193 
! Port Impedance  50               0                

10.16            0.553924096825813 133.669857421917 
! Gamma  !      0.10854568640189 290.314999706983 
! Port Impedance  50               0                

10.17            0.54174420742978 131.538707272843 
! Gamma  !      0.108655057697217 290.603568463498 
! Port Impedance  50               0                

10.18            0.529189076948481 129.363872168373 
! Gamma  !      0.108764435789194 290.892144534027 
! Port Impedance  50               0                

10.19            0.516253207994965 127.145735596653 
! Gamma  !      0.108873820673196 291.180727920848 
! Port Impedance  50               0                

10.2             0.502932765631991 124.885142819781 
! Gamma  !      0.10898321234456 291.469318626228 
! Port Impedance  50               0                

10.21            0.489226056189967 122.583517299415 
! Gamma  !      0.109092610798594 291.757916652422 
! Port Impedance  50               0                

10.22            0.475134111118192 120.243002017588 
! Gamma  !      0.109202016030573 292.046522001677 
! Port Impedance  50               0                

10.23            0.460661394776651 117.866630178131 
! Gamma  !      0.109311428035741 292.335134676226 
! Port Impedance  50               0                

10.24            0.445816656800826 115.458530127176 
! Gamma  !      0.109420846809311 292.623754678293 
! Port Impedance  50               0                

10.25            0.430613950715838 113.024169390635 
! Gamma  !      0.109530272346461 292.91238201009  
! Port Impedance  50               0                

10.26            0.415073840308222 110.570642216051 
! Gamma  !      0.109639704642341 293.201016673819 
! Port Impedance  50               0                

10.27            0.399224813122334 108.107003470852 
! Gamma  !      0.109749143692067 293.489658671671 
! Port Impedance  50               0                

10.28            0.383104915251836 105.644648454533 
! Gamma  !      0.109858589490726 293.778308005825 
! Port Impedance  50               0                

10.29            0.366763611806593 103.197731968362 
! Gamma  !      0.109968042033371 294.066964678452 
! Port Impedance  50               0                

10.3             0.350263860846584 100.78360906825  
! Gamma  !      0.110077501315026 294.355628691709 
! Port Impedance  50               0                

10.31            0.333684361975655 98.4232616619655 
! Gamma  !      0.110186967330681 294.644300047743 
! Port Impedance  50               0                

10.32            0.317121899455115 96.1416458244138 
! Gamma  !      0.110296440075297 294.932978748692 
! Port Impedance  50               0                

10.33            0.300693636727112 93.96784982445   
! Gamma  !      0.110405919543804 295.221664796682 
! Port Impedance  50               0                

10.34            0.284539124989669 91.9348880105944 
! Gamma  !      0.110515405731099 295.510358193827 
! Port Impedance  50               0                

10.35            0.268821651028922 90.0788700352796 
! Gamma  !      0.11062489863205 295.799058942232 
! Port Impedance  50               0                

10.36            0.253728358553923 88.4371887593632 
! Gamma  !      0.110734398241493 296.08776704399  
! Port Impedance  50               0                

10.37            0.239468335926237 87.0452995252827 
! Gamma  !      0.110843904554233 296.376482501184 
! Port Impedance  50               0                

10.38            0.226267614619482 85.9317000208187 
! Gamma  !      0.110953417565044 296.665205315886 
! Port Impedance  50               0                

10.39            0.214359894351342 85.1110033991689 
! Gamma  !      0.11106293726867 296.953935490157 
! Port Impedance  50               0                

10.4             0.203972056608803 84.5756894845945 
! Gamma  !      0.111172463659824 297.242673026048 
! Port Impedance  50               0                

10.41            0.195304498742693 84.2882555905538 
! Gamma  !      0.111281996733187 297.531417925599 
! Port Impedance  50               0                

10.42            0.188508237969431 84.1767096011257 
! Gamma  !      0.11139153648341 297.820170190838 
! Port Impedance  50               0                

10.43            0.183663233689118 84.1367282536837 
! Gamma  !      0.111501082905115 298.108929823783 
! Port Impedance  50               0                

10.44            0.18076415203415 84.0422796295712 
! Gamma  !      0.11161063599289 298.397696826442 
! Port Impedance  50               0                

10.45            0.179719094362886 83.7630665691815 
! Gamma  !      0.111720195741295 298.686471200812 
! Port Impedance  50               0                

10.46            0.180362996302383 83.1836588670065 
! Gamma  !      0.111829762144858 298.975252948879 
! Port Impedance  50               0                

10.47            0.182482193774311 82.2182401556572 
! Gamma  !      0.111939335198078 299.264042072619 
! Port Impedance  50               0                

10.48            0.185843120163227 80.8172695161634 
! Gamma  !      0.112048914895422 299.552838573995 
! Port Impedance  50               0                

10.49            0.190218056870726 78.966154523117  
! Gamma  !      0.112158501231326 299.841642454962 
! Port Impedance  50               0                

10.5             0.195403550831596 76.6787024678904 
! Gamma  !      0.112268094200197 300.130453717463 
! Port Impedance  50               0                

10.51            0.201230416455307 73.9886628971787 
! Gamma  !      0.11237769379641 300.419272363431 
! Port Impedance  50               0                

10.52            0.207566556663248 70.9417651550625 
! Gamma  !      0.112487300014311 300.708098394788 
! Port Impedance  50               0                

10.53            0.214314784230856 67.5893979034776 
! Gamma  !      0.112596912848215 300.996931813444 
! Port Impedance  50               0                

10.54            0.221407792244571 63.9841408724154 
! Gamma  !      0.112706532292405 301.285772621302 
! Port Impedance  50               0                

10.55            0.228801947189966 60.1768816693798 
! Gamma  !      0.112816158341136 301.57462082025  
! Port Impedance  50               0                

10.56            0.236471025957313 56.2151091055781 
! Gamma  !      0.11292579098863 301.863476412168 
! Port Impedance  50               0                

10.57            0.244400554476018 52.1420061379821 
! Gamma  !      0.113035430229081 302.152339398924 
! Port Impedance  50               0                

10.58            0.252583070566917 47.9960562182035 
! Gamma  !      0.113145076056651 302.441209782378 
! Port Impedance  50               0                

10.59            0.261014412350592 43.8109684244552 
! Gamma  !      0.113254728465472 302.730087564376 
! Port Impedance  50               0                

10.6             0.269690997770956 39.6157979161621 
! Gamma  !      0.113364387449646 303.018972746755 
! Port Impedance  50               0                

10.61            0.278607984622616 35.4351862449224 
! Gamma  !      0.113474053003243 303.307865331341 
! Port Impedance  50               0                

10.62            0.28775816448813 31.2896753256268 
! Gamma  !      0.113583725120305 303.596765319951 
! Port Impedance  50               0                

10.63            0.297131434489539 27.1960653726052 
! Gamma  !      0.113693403794841 303.885672714389 
! Port Impedance  50               0                

10.64            0.306714698073448 23.1677959717475 
! Gamma  !      0.113803089020832 304.17458751645  
! Port Impedance  50               0                

10.65            0.316492063220823 19.2153343427737 
! Gamma  !      0.113912780792226 304.463509727917 
! Port Impedance  50               0                

10.66            0.326445228435349 15.3465579869753 
! Gamma  !      0.114022479102944 304.752439350565 
! Port Impedance  50               0                

10.67            0.336553970005652 11.5671214776544 
! Gamma  !      0.114132183946875 305.041376386156 
! Port Impedance  50               0                

10.68            0.346796665935745 7.88079959110855 
! Gamma  !      0.114241895317876 305.330320836442 
! Port Impedance  50               0                

10.69            0.357150811154335 4.28980136447013 
! Gamma  !      0.114351613209776 305.619272703166 
! Port Impedance  50               0                

10.7             0.367593494479682 0.795051906340264 
! Gamma  !      0.114461337616373 305.908231988058 
! Port Impedance  50               0                

10.71            0.378101820224595 -2.603559248931  
! Gamma  !      0.114571068531435 306.19719869284  
! Port Impedance  50               0                

10.72            0.388653266532104 -5.90696285289886 
! Gamma  !      0.114680805948699 306.486172819221 
! Port Impedance  50               0                

10.73            0.399225978991159 -9.11672613115691 
! Gamma  !      0.114790549861873 306.775154368901 
! Port Impedance  50               0                

10.74            0.409799002320107 -12.2348980455351 
! Gamma  !      0.114900300264634 307.06414334357  
! Port Impedance  50               0                

10.75            0.42035245544252 -15.2638807531927 
! Gamma  !      0.115010057150629 307.353139744906 
! Port Impedance  50               0                

10.76            0.430867656574687 -18.2063241838809 
! Gamma  !      0.115119820513476 307.642143574577 
! Port Impedance  50               0                

10.77            0.441327205377819 -21.0650406598189 
! Gamma  !      0.115229590346762 307.931154834242 
! Port Impedance  50               0                

10.78            0.451715029099237 -23.8429366275783 
! Gamma  !      0.115339366644045 308.220173525548 
! Port Impedance  50               0                

10.79            0.462016399158285 -26.5429588048623 
! Gamma  !      0.115449149398851 308.509199650131 
! Port Impedance  50               0                

10.8             0.47221792398336 -29.1680523256111 
! Gamma  !      0.115558938604679 308.798233209619 
! Port Impedance  50               0                

10.81            0.482307523184952 -31.7211287639329 
! Gamma  !      0.115668734254998 309.087274205627 
! Port Impedance  50               0                

10.82            0.492274387425335 -34.2050422098636 
! Gamma  !      0.115778536343246 309.376322639761 
! Port Impedance  50               0                

10.83            0.502108927661371 -36.6225718447879 
! Gamma  !      0.115888344862833 309.665378513616 
! Port Impedance  50               0                

10.84            0.511802716814937 -38.9764097138483 
! Gamma  !      0.115998159807139 309.954441828776 
! Port Impedance  50               0                

10.85            0.521348426375634 -41.2691526135576 
! Gamma  !      0.116107981169514 310.243512586818 
! Port Impedance  50               0                

10.86            0.530739759964578 -43.5032972046288 
! Gamma  !      0.116217808943281 310.532590789303 
! Port Impedance  50               0                

10.87            0.539971385481972 -45.6812376238759 
! Gamma  !      0.116327643121733 310.821676437786 
! Port Impedance  50               0                

10.88            0.549038867119523 -47.8052650072927 
! Gamma  !      0.116437483698134 311.110769533811 
! Port Impedance  50               0                

10.89            0.557938598234035 -49.8775684518385 
! Gamma  !      0.116547330665721 311.39987007891  
! Port Impedance  50               0                

10.9             0.566667735842927 -51.9002370388611 
! Gamma  !      0.1166571840177  311.688978074605 
! Port Impedance  50               0                

10.91            0.575224137309571 -53.8752626204665 
! Gamma  !      0.116767043747252 311.978093522409 
! Port Impedance  50               0                

10.92            0.583606299628941 -55.8045431339562 
! Gamma  !      0.116876909847527 312.267216423824 
! Port Impedance  50               0                

10.93            0.591813301596842 -57.6898862611712 
! Gamma  !      0.116986782311649 312.556346780342 
! Port Impedance  50               0                

10.94            0.599844749043762 -59.5330132912311 
! Gamma  !      0.117096661132715 312.845484593443 
! Port Impedance  50               0                

10.95            0.607700723232705 -61.3355630784899 
! Gamma  !      0.117206546303793 313.134629864598 
! Port Impedance  50               0                

10.96            0.615381732455985 -63.0990960141007 
! Gamma  !      0.117316437817927 313.423782595269 
! Port Impedance  50               0                

10.97            0.622888666815408 -64.8250979506248 
! Gamma  !      0.11742633566813 313.712942786905 
! Port Impedance  50               0                

10.98            0.630222756131239 -66.5149840356803 
! Gamma  !      0.117536239847394 314.002110440947 
! Port Impedance  50               0                

10.99            0.637385530895886 -68.1701024236111 
! Gamma  !      0.117646150348679 314.291285558823 
! Port Impedance  50               0                

11               0.644378786166128 -69.7917378442388 
! Gamma  !      0.117756067164924 314.580468141955 
! Port Impedance  50               0                

11.01            0.651204548271994 -71.3811150155128 
! Gamma  !      0.117865990289041 314.869658191751 
! Port Impedance  50               0                

11.02            0.657865044209709 -72.9394018928527 
! Gamma  !      0.117975919713916 315.15885570961  
! Port Impedance  50               0                

11.03            0.664362673579319 -74.4677127524186 
! Gamma  !      0.118085855432413 315.44806069692  
! Port Impedance  50               0                

11.04            0.67069998292417 -75.9671111089162 
! Gamma  !      0.118195797437369 315.737273155062 
! Port Impedance  50               0                

11.05            0.676879642328503 -77.43861247096  
! Gamma  !      0.118305745721599 316.026493085402 
! Port Impedance  50               0                

11.06            0.682904424130436 -78.8831869387586 
! Gamma  !      0.118415700277893 316.315720489299 
! Port Impedance  50               0                

11.07            0.688777183610399 -80.3017616500829 
! Gamma  !      0.118525661099021 316.604955368101 
! Port Impedance  50               0                

11.08            0.694500841518752 -81.6952230812313 
! Gamma  !      0.118635628177728 316.894197723146 
! Port Impedance  50               0                

11.09            0.700078368311256 -83.0644192101734 
! Gamma  !      0.118745601506737 317.183447555761 
! Port Impedance  50               0                

11.1             0.705512769966308 -84.4101615492503 
! Gamma  !      0.118855581078753 317.472704867264 
! Port Impedance  50               0                

11.11            0.710807075263712 -85.7332270548349 
! Gamma  !      0.118965566886455 317.761969658962 
! Port Impedance  50               0                

11.12            0.715964324410938 -87.0343599212622 
! Gamma  !      0.119075558922508 318.051241932152 
! Port Impedance  50               0                

11.13            0.72098755890896 -88.3142732661304 
! Gamma  !      0.119185557179551 318.340521688121 
! Port Impedance  50               0                

11.14            0.725879812556117 -89.5736507138077 
! Gamma  !      0.119295561650209 318.629808928146 
! Port Impedance  50               0                

11.15            0.730644103494693 -90.8131478836873 
! Gamma  !      0.119405572327086 318.919103653494 
! Port Impedance  50               0                

11.16            0.735283427210969 -92.033393789379 
! Gamma  !      0.119515589202769 319.208405865421 
! Port Impedance  50               0                

11.17            0.73980075040555 -93.2349921546992 
! Gamma  !      0.119625612269828 319.497715565174 
! Port Impedance  50               0                

11.18            0.744199005656491 -94.4185226519627 
! Gamma  !      0.119735641520817 319.78703275399  
! Port Impedance  50               0                

11.19            0.748481086803246 -95.584542067733 
! Gamma  !      0.119845676948274 320.076357433094 
! Port Impedance  50               0                

11.2             0.752649844984831 -96.7335854008641 
! Gamma  !      0.119955718544721 320.365689603703 
! Port Impedance  50               0                

11.21            0.756708085270508 -97.8661668973253 
! Gamma  !      0.12006576630267 320.655029267023 
! Port Impedance  50               0                

11.22            0.760658563826165 -98.9827810260113 
! Gamma  !      0.120175820214614 320.944376424251 
! Port Impedance  50               0                

11.23            0.764503985563941 -100.083903399435 
! Gamma  !      0.120285880273038 321.233731076572 
! Port Impedance  50               0                

11.24            0.768247002226887 -101.169991642922 
! Gamma  !      0.120395946470415 321.523093225163 
! Port Impedance  50               0                

11.25            0.771890210864486 -102.24148621569 
! Gamma  !      0.120506018799205 321.812462871189 
! Port Impedance  50               0                

11.26            0.775436152658374 -103.29881118692 
! Gamma  !      0.12061609725186 322.101840015808 
! Port Impedance  50               0                

11.27            0.778887312061205 -104.342374969731 
! Gamma  !      0.120726181820824 322.391224660164 
! Port Impedance  50               0                

11.28            0.782246116214697 -105.372571015754 
! Gamma  !      0.120836272498531 322.680616805394 
! Port Impedance  50               0                

11.29            0.785514934615895 -106.389778472787 
! Gamma  !      0.120946369277409 322.970016452625 
! Port Impedance  50               0                

11.3             0.788696079003445 -107.394362807867 
! Gamma  !      0.121056472149881 323.259423602972 
! Port Impedance  50               0                

11.31            0.791791803438202 -108.386676397906 
! Gamma  !      0.121166581108365 323.548838257541 
! Port Impedance  50               0                

11.32            0.794804304554823 -109.367059089875 
! Gamma  !      0.121276696145275 323.838260417429 
! Port Impedance  50               0                

11.33            0.797735721963198 -110.335838732422 
! Gamma  !      0.12138681725302 324.127690083723 
! Port Impedance  50               0                

11.34            0.800588138780531 -111.293331680619 
! Gamma  !      0.121496944424013 324.417127257497 
! Port Impedance  50               0                

11.35            0.8033635822767  -112.239843275468 
! Gamma  !      0.121607077650661 324.70657193982  
! Port Impedance  50               0                

11.36            0.806064024617255 -113.175668299641 
! Gamma  !      0.121717216925374 324.996024131747 
! Port Impedance  50               0                

11.37            0.808691383689878 -114.101091410858 
! Gamma  !      0.121827362240566 325.285483834325 
! Port Impedance  50               0                

11.38            0.811247524001591 -115.01638755419 
! Gamma  !      0.121937513588651 325.574951048591 
! Port Impedance  50               0                

11.39            0.81373425763527 -115.921822354504 
! Gamma  !      0.122047670962049 325.864425775572 
! Port Impedance  50               0                

11.4             0.816153345255177 -116.817652490162 
! Gamma  !      0.122157834353186 326.153908016285 
! Port Impedance  50               0                

11.41            0.818506497152318 -117.704126049045 
! Gamma  !      0.122268003754495 326.443397771737 
! Port Impedance  50               0                

11.42            0.820795374321404 -118.581482867871 
! Gamma  !      0.122378179158416 326.732895042925 
! Port Impedance  50               0                

11.43            0.823021589562064 -119.449954855733 
! Gamma  !      0.1224883605574  327.022399830837 
! Port Impedance  50               0                

11.44            0.825186708597805 -120.309766302713 
! Gamma  !      0.12259854794391 327.31191213645  
! Port Impedance  50               0                

11.45            0.827292251206886 -121.16113417438 
! Gamma  !      0.122708741310419 327.601431960733 
! Port Impedance  50               0                

11.46            0.829339692360015 -122.004268392929 
! Gamma  !      0.122818940649417 327.890959304644 
! Port Impedance  50               0                

11.47            0.831330463360298 -122.839372105659 
! Gamma  !      0.122929145953407 328.18049416913  
! Port Impedance  50               0                

11.48            0.833265952981493 -123.666641941462 
! Gamma  !      0.12303935721491 328.47003655513  
! Port Impedance  50               0                

11.49            0.835147508601052 -124.486268255951 
! Gamma  !      0.123149574426466 328.759586463573 
! Port Impedance  50               0                

11.5             0.836976437324913 -125.29843536579 
! Gamma  !      0.123259797580634 329.049143895377 
! Port Impedance  50               0                

